r = [
0,8,9,16,2,1,8,1,16,8,10,0
];
p = [
0,18,6,28,8,30,1,17,26,11,18,0
];
e = [
0,20,20,5,8,15,9,11,20,10,16,0
];
d = [
0,104,153,155,176,143,84,82,151,212,124,222
];
d_bar = [
0,120,158,180,183,170,85,97,174,222,140,222
];
w = [
0,1.25,4,0.2,1.142857143,0.555555556,9,0.733333333,0.869565217,1,1,0
];
